\ENCODING=ISO-8859-1
\Problem name: IloCplex

Minimize
 obj: 1000000000000 x1 + 1000000000000 x2 + 1000000000000 x3 + 1000000000000 x4
      + 1000000000000 x5 + 1000000000000 x6 + 1000000000000 x7
      + 1000000000000 x8 + 1000000000000 x9 + 1000000000000 x10
      + 1000000000000 x11 + 1000000000000 x12 + 1000000000000 x13
      + 1000000000000 x14 + 1000000000000 x15 + 1000000000000 x16
      + 1000000000000 x17 + 1000000000000 x18 + 1000000000000 x19
      + 1000000000000 x20 + 1000000000000 x21 + 1000000000000 x22
      + 1000000000000 x23 + 1000000000000 x24 + 1000000000000 x25
      + 1000000000000 x26 + 1000000000000 x27 + 1000000000000 x28
      + 1000000000000 x29 + 1000000000000 x30 + 1000000000000 x31
      + 1000000000000 x32 + 1000000000000 x33 + 1000000000000 x34
      + 1000000000000 x35 + 1000000000000 x36 + 1000000000000 x37
      + 1000000000000 x38 + 1000000000000 x39 + 1000000000000 x40
      + 1000000000000 x41 + 1000000000000 x42 + 1000000000000 x43
      + 1000000000000 x44 + 1000000000000 x45 + 1000000000000 x46
      + 1000000000000 x47 + 1000000000000 x48 + 1000000000000 x49
      + 1000000000000 x50 + x51 + x52 + x53 + x54 + x55 + x56 + x57 + x58 + x59
      + x60 + x61 + x62 + x63 + x64 + x65 + x66 + x67 + x68 + x69 + x70 + x71
      + x72 + x73 + x74 + x75 + x76 + x77 + x78 + x79 + x80 + x81 + x82 + x83
      + x84 + x85 + x86 + x87 + x88 + x89 + x90 + x91 + x92 + x93 + x94 + x95
      + x96 + x97 + x98 + x99 + x100 + x101 + x102 + x103 + x104 + x105 + x106
      + x107 + x108 + x109 + x110 + x111 + x112 + x113 + x114 + x115 + x116
      + x117 + x118 + x119 + x120 + x121 + x122 + x123 + x124 + x125 + x126
      + x127 + x128 + x129 + x130 + x131 + x132 + x133 + x134 + x135 + x136
      + x137 + x138 + x139 + x140 + x141 + x142 + x143 + x144 + x145 + x146
      + x147 + x148 + x149 + x150 + x151 + x152 + x153 + x154 + x155 + x156
      + x157 + x158 + x159 + x160 + x161 + x162
Subject To
 c1:  x1 + x133  = 1
 c2:  x2 + x156  = 1
 c3:  x3 + x125  = 1
 c4:  x4 + x158  = 1
 c5:  x5 + x155  = 1
 c6:  x6 + x149  = 1
 c7:  x7 + x157  = 1
 c8:  x8 + x151 + x152  = 1
 c9:  x9 + x153 + x159  = 1
 c10: x10 + x160  = 1
 c11: x11 + x136 + x150  = 1
 c12: x12 + x143 + x148 + x161  = 1
 c13: x13 + x146 + x147  = 1
 c14: x14 + x142 + x145 + x162  = 1
 c15: x15 + x130 + x135  = 1
 c16: x16 + x122 + x129 + x134  = 1
 c17: x17 + x109 + x121 + x128  = 1
 c18: x18 + x115 + x120 + x127  = 1
 c19: x19 + x112 + x114 + x119 + x126  = 1
 c20: x20 + x108 + x111 + x132  = 1
 c21: x21 + x106 + x107 + x117 + x124 + x131  = 1
 c22: x22 + x89 + x105 + x141  = 1
 c23: x23 + x101 + x104 + x140  = 1
 c24: x24 + x97 + x100 + x139  = 1
 c25: x25 + x92 + x95 + x98 + x103 + x137 + x144  = 1
 c26: x26 + x90 + x94 + x102 + x118  = 1
 c27: x27 + x83 + x87 + x88 + x110 + x113 + x123  = 1
 c28: x28 + x78 + x85 + x91 + x93 + x113  = 1
 c29: x29 + x78 + x84 + x90 + x116 + x154  = 1
 c30: x30 + x74 + x76 + x81 + x138 + x144  = 1
 c31: x31 + x73 + x76 + x86 + x99 + x100 + x104  = 1
 c32: x32 + x72 + x73 + x97 + x140  = 1
 c33: x33 + x70 + x72 + x92 + x101 + x105  = 1
 c34: x34 + x69 + x70 + x74 + x81 + x86 + x141  = 1
 c35: x35 + x59 + x66 + x71 + x75 + x80 + x91 + x96 + x99 + x116 + x118 + x154
       = 1
 c36: x36 + x66 + x68 + x69 + x77 + x79 + x83 + x106 + x114 + x115 + x121  = 1
 c37: x37 + x64 + x66 + x67 + x82 + x85 + x87 + x107 + x119 + x120 + x128  = 1
 c38: x38 + x63 + x64 + x65 + x68 + x79 + x84 + x93 + x102 + x110 + x112 + x127
       = 1
 c39: x39 + x60 + x61 + x62 + x63 + x65 + x67 + x77 + x80 + x88 + x103 + x109
      + x122  = 1
 c40: x40 + x58 + x60 + x61 + x62 + x64 + x68 + x75 + x94 + x95 + x98 + x99
      + x134 + x135  = 1
 c41: x41 + x56 + x57 + x58 + x59 + x63 + x69 + x72 + x84 + x89 + x131 + x137
      + x138 + x142  = 1
 c42: x42 + x54 + x55 + x56 + x59 + x62 + x67 + x71 + x81 + x111 + x143 + x162
       = 1
 c43: x43 + x53 + x54 + x55 + x57 + x58 + x60 + x71 + x77 + x82 + x88 + x94
      + x96 + x108 + x124 + x129 + x130  = 1
 c44: x44 + x51 + x52 + x54 + x55 + x58 + x59 + x70 + x73 + x82 + x98 + x123
      + x138 + x139 + x150  = 1
 c45: x45 + x51 + x52 + x53 + x54 + x56 + x58 + x61 + x63 + x71 + x79 + x80
      + x86 + x87 + x93 + x117 + x126 + x138 + x146  = 1
 c46: x46 + x51 + x52 + x53 + x54 + x57 + x62 + x65 + x75 + x77 + x79 + x85
      + x89 + x110 + x136 + x151  = 1
 c47: x47 + x51 + x52 + x53 + x55 + x56 + x60 + x67 + x68 + x75 + x80 + x82
      + x96 + x102 + x108 + x117 + x137 + x147  = 1
 c48: x48 + x51 + x52 + x53 + x55 + x57 + x61 + x64 + x74 + x83 + x96 + x111
      + x145 + x148  = 1
 c49: x49 + x51 + x52 + x56 + x57 + x60 + x61 + x65 + x69 + x76 + x82 + x91
      + x95 + x103 + x116 + x123 + x126 + x139 + x153  = 1
 c50: x50 + x51 + x56 + x57 + x60 + x62 + x63 + x66 + x74 + x78 + x91 + x92
      + x123 + x126 + x131 + x132 + x134 + x143  = 1
Bounds
      x51 = 0
      x52 = 0
      x53 = 0
      x55 = 0
      x57 = 0
      x61 = 0
      x64 = 0
      x74 = 0
      x83 = 0
      x96 = 0
      x111 = 0
      x143 = 0
      x145 = 0
      x161 = 0
End
